sat
(:max-memory         18.42
 :memory             18.33
 :nlsat-arith-var    3
 :nlsat-atoms        11
 :nlsat-bool-var     1
 :nlsat-clauses      8
 :nlsat-conflicts    2
 :nlsat-propagations 18
 :nlsat-stages       6
 :num-allocs         52185
 :rlimit-count       2177
 :time               0.00
 :total-time         0.02)
